--- Job HW-6-Dual.gms Start 10/21/24 23:38:06 47.6.0 c2de9d6d WEX-WEI x86 64bit/MS Windows
--- Applying:
    C:\GAMS\47\gmsprmNT.txt
--- GAMS Parameters defined
    Input C:\Users\gabis\Box\2024_Fall\CEE6410\gams_tareas\CEE6410-GabiSanchoJuarez\HW-6-Dual.gms
    PageSize 0
    ScrDir C:\Users\gabis\Box\2024_Fall\CEE6410\gams_tareas\CEE6410-GabiSanchoJuarez\225a\
    SysDir C:\GAMS\47\
    LogOption 3
    ErrMsg 1
    ErrorLog 99
    IDE 1
    LstTitleLeftAligned 1
Licensee: CEE 6410 Water Resources Systems Analysis      G240923|0002AO-GEN
          Utah State University, Utah Water Research Laboratory     DCE3763
          C:\Users\gabis\OneDrive\Documentos\GAMS\gamslice.txt
          License Admin: David Rosenberg, david.rosenberg@usu.edu          
          Other time limited license
          The evaluation period of the license will expire on Dec 22, 2024
Processor information: 1 socket(s), 4 core(s), and 8 thread(s) available
GAMS 47.6.0   Copyright (C) 1987-2024 GAMS Development. All rights reserved
--- Starting compilation
--- HW-6-Dual.gms(79) 3 Mb
--- Starting execution: elapsed 0:00:00.040
--- HW-6-Dual.gms(57) 4 Mb
--- Generating LP model PLANT_PRIMAL
--- HW-6-Dual.gms(65) 4 Mb
---   4 rows  3 columns  9 non-zeroes
--- Range statistics (absolute non-zero finite values)
--- RHS       [min, max] : [ 1.200E+04, 4.000E+06] - Zero values observed as well
--- Bound     [min, max] : [        NA,        NA] - Zero values observed as well
--- Matrix    [min, max] : [ 1.000E+00, 2.000E+03]
--- Executing CPLEX (Solvelink=2): elapsed 0:00:00.128

IBM ILOG CPLEX   47.6.0 c2de9d6d Sep 12, 2024          WEI x86 64bit/MS Window

*** This solver runs with a community license.

*** Error Cannot open parameter file "C:\Users\gabis\Box\2024_Fall\CEE6410\gams_tareas\CEE6410-GabiSanchoJuarez\cplex.opt"
*** Error Error code = 2; No such file or directory

--- GMO setup time: 0.00s
--- GMO memory 0.50 Mb (peak 0.50 Mb)
--- Dictionary memory 0.00 Mb
--- Cplex 22.1.1.0 link memory 0.00 Mb (peak 0.00 Mb)
--- Starting Cplex

Version identifier: 22.1.1.0 | 2022-11-27 | 9160aff4d
CPXPARAM_Advance                                 0
CPXPARAM_Simplex_Display                         2
CPXPARAM_MIP_Display                             4
CPXPARAM_MIP_Pool_Capacity                       0
CPXPARAM_MIP_Tolerances_AbsMIPGap                0
Tried aggregator 1 time.
LP Presolve eliminated 0 rows and 1 columns.
Reduced LP has 3 rows, 2 columns, and 6 nonzeros.
Presolve time = 0.00 sec. (0.00 ticks)

Iteration      Dual Objective            In Variable           Out Variable
     1 sI            0.000000            X(Tomatoes)RES_CONS_PRIMAL(L slack
     2           22333.333333            X(Eggplant)RES_CONS_PRIMAL(W slack
     3           20000.000000RES_CONS_PRIMAL(L slackRES_CONS_PRIMAL(L slack

--- LP status (1): optimal.
--- Cplex Time: 0.02sec (det. 0.01 ticks)


Optimal solution found
Objective:        20000.000000

--- Reading solution for model PLANT_PRIMAL
--- Executing after solve: elapsed 0:00:00.246
--- Generating LP model PLANT_DUAL
--- HW-6-Dual.gms(69) 4 Mb
---   3 rows  4 columns  10 non-zeroes
--- Range statistics (absolute non-zero finite values)
--- RHS       [min, max] : [ 6.000E+00, 7.000E+00] - Zero values observed as well
--- Bound     [min, max] : [        NA,        NA] - Zero values observed as well
--- Matrix    [min, max] : [ 1.000E+00, 4.000E+06]
--- Executing CPLEX (Solvelink=2): elapsed 0:00:00.334

IBM ILOG CPLEX   47.6.0 c2de9d6d Sep 12, 2024          WEI x86 64bit/MS Window

*** This solver runs with a community license.
--- GMO setup time: 0.00s
--- GMO memory 0.50 Mb (peak 0.50 Mb)
--- Dictionary memory 0.00 Mb
--- Cplex 22.1.1.0 link memory 0.00 Mb (peak 0.00 Mb)
--- Starting Cplex

Version identifier: 22.1.1.0 | 2022-11-27 | 9160aff4d
CPXPARAM_Advance                                 0
CPXPARAM_Simplex_Display                         2
CPXPARAM_MIP_Display                             4
CPXPARAM_MIP_Pool_Capacity                       0
CPXPARAM_MIP_Tolerances_AbsMIPGap                0
Tried aggregator 1 time.
LP Presolve eliminated 0 rows and 1 columns.
Reduced LP has 2 rows, 3 columns, and 6 nonzeros.
Presolve time = 0.00 sec. (0.00 ticks)

Iteration      Dual Objective            In Variable           Out Variable
     1           18000.000000                Y(Land)RES_CONS_DUAL(Egg slack
     2           20000.000000               Y(Water)RES_CONS_DUAL(Tom slack

--- LP status (1): optimal.
--- Cplex Time: 0.00sec (det. 0.01 ticks)


Optimal solution found
Objective:        20000.000000

--- Reading solution for model PLANT_DUAL
--- Executing after solve: elapsed 0:00:00.419
--- HW-6-Dual.gms(75) 4 Mb
--- GDX File (execute_unload) C:\Users\gabis\Box\2024_Fall\CEE6410\gams_tareas\CEE6410-GabiSanchoJuarez\Ex2-1Dual.gdx
--- HW-6-Dual.gms(77) 4 Mb
GDX2XLS          47.6.0 c2de9d6d Sep 12, 2024          WEI x86 64bit/MS Window
Output file: C:\Users\gabis\Box\2024_Fall\CEE6410\gams_tareas\CEE6410-GabiSanchoJuarez\Ex2-1Dual.xlsx
(Created backup file)
*** Status: Normal completion
--- Job HW-6-Dual.gms Stop 10/21/24 23:38:08 elapsed 0:00:02.140
